NAME: X186-FSMD
COMMENT: Generated by Uchoa, Pecin, Pessoa, Poggi, Subramanian, and Vidal (2013). Modified by Sadykov, Pessoa and Uchoa (2017). Converted to PyVRP's VRPLIB dialect.
TYPE: HFVRP
DIMENSION: 186
VEHICLES: 925
EDGE_WEIGHT_TYPE: EUC_2D
NODE_COORD_SECTION
1	159	917
2	635	200
3	278	907
4	875	93
5	10	732
6	586	657
7	482	75
8	526	176
9	153	622
10	452	945
11	456	137
12	884	968
13	688	793
14	117	915
15	149	746
16	495	325
17	539	967
18	917	58
19	590	316
20	611	998
21	963	878
22	141	5
23	383	531
24	685	124
25	39	781
26	534	29
27	213	837
28	874	734
29	180	943
30	789	541
31	343	949
32	537	248
33	626	147
34	56	596
35	112	344
36	738	977
37	941	193
38	437	386
39	440	770
40	743	623
41	521	398
42	488	747
43	321	734
44	521	778
45	90	89
46	716	652
47	333	12
48	244	424
49	199	115
50	83	719
51	126	148
52	789	437
53	728	336
54	504	704
55	933	949
56	232	78
57	382	130
58	346	2
59	61	985
60	357	505
61	199	892
62	930	154
63	400	95
64	148	261
65	41	527
66	29	335
67	913	885
68	293	784
69	102	962
70	372	866
71	144	223
72	684	899
73	402	636
74	138	705
75	715	745
76	914	323
77	287	3
78	461	953
79	826	351
80	780	165
81	935	38
82	927	350
83	754	709
84	784	423
85	849	726
86	74	778
87	354	750
88	628	487
89	362	568
90	898	759
91	563	171
92	721	637
93	136	83
94	341	955
95	892	938
96	671	542
97	659	306
98	805	670
99	930	778
100	791	763
101	747	285
102	641	347
103	846	685
104	598	253
105	45	585
106	654	70
107	887	421
108	310	854
109	527	787
110	602	66
111	878	10
112	351	797
113	995	987
114	697	200
115	722	246
116	847	208
117	577	295
118	102	478
119	899	185
120	123	601
121	230	342
122	438	547
123	968	649
124	214	379
125	242	769
126	273	194
127	66	727
128	354	338
129	725	735
130	632	849
131	411	272
132	481	165
133	121	414
134	492	78
135	794	406
136	736	937
137	701	496
138	282	94
139	87	12
140	963	619
141	61	688
142	387	244
143	740	242
144	209	571
145	631	208
146	643	521
147	280	11
148	226	40
149	161	296
150	839	54
151	814	504
152	967	668
153	236	704
154	218	618
155	526	667
156	87	981
157	768	197
158	976	122
159	177	712
160	449	902
161	492	63
162	761	122
163	609	621
164	614	240
165	478	599
166	175	312
167	239	636
168	347	199
169	619	620
170	275	24
171	565	769
172	120	871
173	140	957
174	68	736
175	661	294
176	604	737
177	91	956
178	16	561
179	680	254
180	173	171
181	852	978
182	533	757
183	352	957
184	409	939
185	630	902
186	487	220
DEMAND_SECTION
1	0
2	74
3	74
4	80
5	85
6	99
7	81
8	85
9	100
10	74
11	57
12	60
13	74
14	60
15	77
16	72
17	87
18	89
19	53
20	72
21	62
22	53
23	54
24	98
25	65
26	72
27	81
28	84
29	64
30	52
31	60
32	95
33	55
34	79
35	97
36	51
37	93
38	50
39	93
40	95
41	90
42	95
43	71
44	89
45	77
46	81
47	74
48	53
49	79
50	58
51	61
52	97
53	93
54	95
55	80
56	72
57	92
58	88
59	90
60	85
61	83
62	83
63	59
64	75
65	80
66	55
67	66
68	99
69	89
70	53
71	64
72	85
73	52
74	60
75	63
76	94
77	66
78	56
79	71
80	97
81	98
82	57
83	94
84	60
85	70
86	56
87	56
88	52
89	64
90	81
91	81
92	100
93	73
94	62
95	75
96	68
97	80
98	68
99	89
100	98
101	92
102	97
103	80
104	56
105	83
106	84
107	93
108	50
109	62
110	74
111	51
112	52
113	90
114	50
115	58
116	89
117	66
118	78
119	69
120	90
121	77
122	64
123	63
124	54
125	54
126	79
127	91
128	75
129	51
130	81
131	73
132	74
133	72
134	68
135	72
136	60
137	77
138	81
139	67
140	85
141	85
142	75
143	98
144	73
145	50
146	100
147	64
148	58
149	50
150	97
151	100
152	87
153	76
154	52
155	94
156	76
157	99
158	73
159	88
160	97
161	88
162	58
163	76
164	56
165	51
166	57
167	74
168	100
169	80
170	64
171	94
172	75
173	54
174	97
175	92
176	60
177	75
178	71
179	67
180	96
181	93
182	53
183	80
184	94
185	56
186	60
CAPACITY_SECTION
1	668
2	668
3	668
4	668
5	668
6	668
7	668
8	668
9	668
10	668
11	668
12	668
13	668
14	668
15	668
16	668
17	668
18	668
19	668
20	668
21	668
22	668
23	668
24	668
25	668
26	668
27	668
28	668
29	668
30	668
31	668
32	668
33	668
34	668
35	668
36	668
37	668
38	668
39	668
40	668
41	668
42	668
43	668
44	668
45	668
46	668
47	668
48	668
49	668
50	668
51	668
52	668
53	668
54	668
55	668
56	668
57	668
58	668
59	668
60	668
61	668
62	668
63	668
64	668
65	668
66	668
67	668
68	668
69	668
70	668
71	668
72	668
73	668
74	668
75	668
76	668
77	668
78	668
79	668
80	668
81	668
82	668
83	668
84	668
85	668
86	668
87	668
88	668
89	668
90	668
91	668
92	668
93	668
94	668
95	668
96	668
97	668
98	668
99	668
100	668
101	668
102	668
103	668
104	668
105	668
106	668
107	668
108	668
109	668
110	668
111	668
112	668
113	668
114	668
115	668
116	668
117	668
118	668
119	668
120	668
121	668
122	668
123	668
124	668
125	668
126	668
127	668
128	668
129	668
130	668
131	668
132	668
133	668
134	668
135	668
136	668
137	668
138	668
139	668
140	668
141	668
142	668
143	668
144	668
145	668
146	668
147	668
148	668
149	668
150	668
151	668
152	668
153	668
154	668
155	668
156	668
157	668
158	668
159	668
160	668
161	668
162	668
163	668
164	668
165	668
166	668
167	668
168	668
169	668
170	668
171	668
172	668
173	668
174	668
175	668
176	668
177	668
178	668
179	668
180	668
181	668
182	668
183	668
184	668
185	668
186	795
187	795
188	795
189	795
190	795
191	795
192	795
193	795
194	795
195	795
196	795
197	795
198	795
199	795
200	795
201	795
202	795
203	795
204	795
205	795
206	795
207	795
208	795
209	795
210	795
211	795
212	795
213	795
214	795
215	795
216	795
217	795
218	795
219	795
220	795
221	795
222	795
223	795
224	795
225	795
226	795
227	795
228	795
229	795
230	795
231	795
232	795
233	795
234	795
235	795
236	795
237	795
238	795
239	795
240	795
241	795
242	795
243	795
244	795
245	795
246	795
247	795
248	795
249	795
250	795
251	795
252	795
253	795
254	795
255	795
256	795
257	795
258	795
259	795
260	795
261	795
262	795
263	795
264	795
265	795
266	795
267	795
268	795
269	795
270	795
271	795
272	795
273	795
274	795
275	795
276	795
277	795
278	795
279	795
280	795
281	795
282	795
283	795
284	795
285	795
286	795
287	795
288	795
289	795
290	795
291	795
292	795
293	795
294	795
295	795
296	795
297	795
298	795
299	795
300	795
301	795
302	795
303	795
304	795
305	795
306	795
307	795
308	795
309	795
310	795
311	795
312	795
313	795
314	795
315	795
316	795
317	795
318	795
319	795
320	795
321	795
322	795
323	795
324	795
325	795
326	795
327	795
328	795
329	795
330	795
331	795
332	795
333	795
334	795
335	795
336	795
337	795
338	795
339	795
340	795
341	795
342	795
343	795
344	795
345	795
346	795
347	795
348	795
349	795
350	795
351	795
352	795
353	795
354	795
355	795
356	795
357	795
358	795
359	795
360	795
361	795
362	795
363	795
364	795
365	795
366	795
367	795
368	795
369	795
370	795
371	945
372	945
373	945
374	945
375	945
376	945
377	945
378	945
379	945
380	945
381	945
382	945
383	945
384	945
385	945
386	945
387	945
388	945
389	945
390	945
391	945
392	945
393	945
394	945
395	945
396	945
397	945
398	945
399	945
400	945
401	945
402	945
403	945
404	945
405	945
406	945
407	945
408	945
409	945
410	945
411	945
412	945
413	945
414	945
415	945
416	945
417	945
418	945
419	945
420	945
421	945
422	945
423	945
424	945
425	945
426	945
427	945
428	945
429	945
430	945
431	945
432	945
433	945
434	945
435	945
436	945
437	945
438	945
439	945
440	945
441	945
442	945
443	945
444	945
445	945
446	945
447	945
448	945
449	945
450	945
451	945
452	945
453	945
454	945
455	945
456	945
457	945
458	945
459	945
460	945
461	945
462	945
463	945
464	945
465	945
466	945
467	945
468	945
469	945
470	945
471	945
472	945
473	945
474	945
475	945
476	945
477	945
478	945
479	945
480	945
481	945
482	945
483	945
484	945
485	945
486	945
487	945
488	945
489	945
490	945
491	945
492	945
493	945
494	945
495	945
496	945
497	945
498	945
499	945
500	945
501	945
502	945
503	945
504	945
505	945
506	945
507	945
508	945
509	945
510	945
511	945
512	945
513	945
514	945
515	945
516	945
517	945
518	945
519	945
520	945
521	945
522	945
523	945
524	945
525	945
526	945
527	945
528	945
529	945
530	945
531	945
532	945
533	945
534	945
535	945
536	945
537	945
538	945
539	945
540	945
541	945
542	945
543	945
544	945
545	945
546	945
547	945
548	945
549	945
550	945
551	945
552	945
553	945
554	945
555	945
556	1124
557	1124
558	1124
559	1124
560	1124
561	1124
562	1124
563	1124
564	1124
565	1124
566	1124
567	1124
568	1124
569	1124
570	1124
571	1124
572	1124
573	1124
574	1124
575	1124
576	1124
577	1124
578	1124
579	1124
580	1124
581	1124
582	1124
583	1124
584	1124
585	1124
586	1124
587	1124
588	1124
589	1124
590	1124
591	1124
592	1124
593	1124
594	1124
595	1124
596	1124
597	1124
598	1124
599	1124
600	1124
601	1124
602	1124
603	1124
604	1124
605	1124
606	1124
607	1124
608	1124
609	1124
610	1124
611	1124
612	1124
613	1124
614	1124
615	1124
616	1124
617	1124
618	1124
619	1124
620	1124
621	1124
622	1124
623	1124
624	1124
625	1124
626	1124
627	1124
628	1124
629	1124
630	1124
631	1124
632	1124
633	1124
634	1124
635	1124
636	1124
637	1124
638	1124
639	1124
640	1124
641	1124
642	1124
643	1124
644	1124
645	1124
646	1124
647	1124
648	1124
649	1124
650	1124
651	1124
652	1124
653	1124
654	1124
655	1124
656	1124
657	1124
658	1124
659	1124
660	1124
661	1124
662	1124
663	1124
664	1124
665	1124
666	1124
667	1124
668	1124
669	1124
670	1124
671	1124
672	1124
673	1124
674	1124
675	1124
676	1124
677	1124
678	1124
679	1124
680	1124
681	1124
682	1124
683	1124
684	1124
685	1124
686	1124
687	1124
688	1124
689	1124
690	1124
691	1124
692	1124
693	1124
694	1124
695	1124
696	1124
697	1124
698	1124
699	1124
700	1124
701	1124
702	1124
703	1124
704	1124
705	1124
706	1124
707	1124
708	1124
709	1124
710	1124
711	1124
712	1124
713	1124
714	1124
715	1124
716	1124
717	1124
718	1124
719	1124
720	1124
721	1124
722	1124
723	1124
724	1124
725	1124
726	1124
727	1124
728	1124
729	1124
730	1124
731	1124
732	1124
733	1124
734	1124
735	1124
736	1124
737	1124
738	1124
739	1124
740	1124
741	1337
742	1337
743	1337
744	1337
745	1337
746	1337
747	1337
748	1337
749	1337
750	1337
751	1337
752	1337
753	1337
754	1337
755	1337
756	1337
757	1337
758	1337
759	1337
760	1337
761	1337
762	1337
763	1337
764	1337
765	1337
766	1337
767	1337
768	1337
769	1337
770	1337
771	1337
772	1337
773	1337
774	1337
775	1337
776	1337
777	1337
778	1337
779	1337
780	1337
781	1337
782	1337
783	1337
784	1337
785	1337
786	1337
787	1337
788	1337
789	1337
790	1337
791	1337
792	1337
793	1337
794	1337
795	1337
796	1337
797	1337
798	1337
799	1337
800	1337
801	1337
802	1337
803	1337
804	1337
805	1337
806	1337
807	1337
808	1337
809	1337
810	1337
811	1337
812	1337
813	1337
814	1337
815	1337
816	1337
817	1337
818	1337
819	1337
820	1337
821	1337
822	1337
823	1337
824	1337
825	1337
826	1337
827	1337
828	1337
829	1337
830	1337
831	1337
832	1337
833	1337
834	1337
835	1337
836	1337
837	1337
838	1337
839	1337
840	1337
841	1337
842	1337
843	1337
844	1337
845	1337
846	1337
847	1337
848	1337
849	1337
850	1337
851	1337
852	1337
853	1337
854	1337
855	1337
856	1337
857	1337
858	1337
859	1337
860	1337
861	1337
862	1337
863	1337
864	1337
865	1337
866	1337
867	1337
868	1337
869	1337
870	1337
871	1337
872	1337
873	1337
874	1337
875	1337
876	1337
877	1337
878	1337
879	1337
880	1337
881	1337
882	1337
883	1337
884	1337
885	1337
886	1337
887	1337
888	1337
889	1337
890	1337
891	1337
892	1337
893	1337
894	1337
895	1337
896	1337
897	1337
898	1337
899	1337
900	1337
901	1337
902	1337
903	1337
904	1337
905	1337
906	1337
907	1337
908	1337
909	1337
910	1337
911	1337
912	1337
913	1337
914	1337
915	1337
916	1337
917	1337
918	1337
919	1337
920	1337
921	1337
922	1337
923	1337
924	1337
925	1337
VEHICLES_UNIT_DISTANCE_COST_SECTION
1	77
2	77
3	77
4	77
5	77
6	77
7	77
8	77
9	77
10	77
11	77
12	77
13	77
14	77
15	77
16	77
17	77
18	77
19	77
20	77
21	77
22	77
23	77
24	77
25	77
26	77
27	77
28	77
29	77
30	77
31	77
32	77
33	77
34	77
35	77
36	77
37	77
38	77
39	77
40	77
41	77
42	77
43	77
44	77
45	77
46	77
47	77
48	77
49	77
50	77
51	77
52	77
53	77
54	77
55	77
56	77
57	77
58	77
59	77
60	77
61	77
62	77
63	77
64	77
65	77
66	77
67	77
68	77
69	77
70	77
71	77
72	77
73	77
74	77
75	77
76	77
77	77
78	77
79	77
80	77
81	77
82	77
83	77
84	77
85	77
86	77
87	77
88	77
89	77
90	77
91	77
92	77
93	77
94	77
95	77
96	77
97	77
98	77
99	77
100	77
101	77
102	77
103	77
104	77
105	77
106	77
107	77
108	77
109	77
110	77
111	77
112	77
113	77
114	77
115	77
116	77
117	77
118	77
119	77
120	77
121	77
122	77
123	77
124	77
125	77
126	77
127	77
128	77
129	77
130	77
131	77
132	77
133	77
134	77
135	77
136	77
137	77
138	77
139	77
140	77
141	77
142	77
143	77
144	77
145	77
146	77
147	77
148	77
149	77
150	77
151	77
152	77
153	77
154	77
155	77
156	77
157	77
158	77
159	77
160	77
161	77
162	77
163	77
164	77
165	77
166	77
167	77
168	77
169	77
170	77
171	77
172	77
173	77
174	77
175	77
176	77
177	77
178	77
179	77
180	77
181	77
182	77
183	77
184	77
185	77
186	88
187	88
188	88
189	88
190	88
191	88
192	88
193	88
194	88
195	88
196	88
197	88
198	88
199	88
200	88
201	88
202	88
203	88
204	88
205	88
206	88
207	88
208	88
209	88
210	88
211	88
212	88
213	88
214	88
215	88
216	88
217	88
218	88
219	88
220	88
221	88
222	88
223	88
224	88
225	88
226	88
227	88
228	88
229	88
230	88
231	88
232	88
233	88
234	88
235	88
236	88
237	88
238	88
239	88
240	88
241	88
242	88
243	88
244	88
245	88
246	88
247	88
248	88
249	88
250	88
251	88
252	88
253	88
254	88
255	88
256	88
257	88
258	88
259	88
260	88
261	88
262	88
263	88
264	88
265	88
266	88
267	88
268	88
269	88
270	88
271	88
272	88
273	88
274	88
275	88
276	88
277	88
278	88
279	88
280	88
281	88
282	88
283	88
284	88
285	88
286	88
287	88
288	88
289	88
290	88
291	88
292	88
293	88
294	88
295	88
296	88
297	88
298	88
299	88
300	88
301	88
302	88
303	88
304	88
305	88
306	88
307	88
308	88
309	88
310	88
311	88
312	88
313	88
314	88
315	88
316	88
317	88
318	88
319	88
320	88
321	88
322	88
323	88
324	88
325	88
326	88
327	88
328	88
329	88
330	88
331	88
332	88
333	88
334	88
335	88
336	88
337	88
338	88
339	88
340	88
341	88
342	88
343	88
344	88
345	88
346	88
347	88
348	88
349	88
350	88
351	88
352	88
353	88
354	88
355	88
356	88
357	88
358	88
359	88
360	88
361	88
362	88
363	88
364	88
365	88
366	88
367	88
368	88
369	88
370	88
371	100
372	100
373	100
374	100
375	100
376	100
377	100
378	100
379	100
380	100
381	100
382	100
383	100
384	100
385	100
386	100
387	100
388	100
389	100
390	100
391	100
392	100
393	100
394	100
395	100
396	100
397	100
398	100
399	100
400	100
401	100
402	100
403	100
404	100
405	100
406	100
407	100
408	100
409	100
410	100
411	100
412	100
413	100
414	100
415	100
416	100
417	100
418	100
419	100
420	100
421	100
422	100
423	100
424	100
425	100
426	100
427	100
428	100
429	100
430	100
431	100
432	100
433	100
434	100
435	100
436	100
437	100
438	100
439	100
440	100
441	100
442	100
443	100
444	100
445	100
446	100
447	100
448	100
449	100
450	100
451	100
452	100
453	100
454	100
455	100
456	100
457	100
458	100
459	100
460	100
461	100
462	100
463	100
464	100
465	100
466	100
467	100
468	100
469	100
470	100
471	100
472	100
473	100
474	100
475	100
476	100
477	100
478	100
479	100
480	100
481	100
482	100
483	100
484	100
485	100
486	100
487	100
488	100
489	100
490	100
491	100
492	100
493	100
494	100
495	100
496	100
497	100
498	100
499	100
500	100
501	100
502	100
503	100
504	100
505	100
506	100
507	100
508	100
509	100
510	100
511	100
512	100
513	100
514	100
515	100
516	100
517	100
518	100
519	100
520	100
521	100
522	100
523	100
524	100
525	100
526	100
527	100
528	100
529	100
530	100
531	100
532	100
533	100
534	100
535	100
536	100
537	100
538	100
539	100
540	100
541	100
542	100
543	100
544	100
545	100
546	100
547	100
548	100
549	100
550	100
551	100
552	100
553	100
554	100
555	100
556	113
557	113
558	113
559	113
560	113
561	113
562	113
563	113
564	113
565	113
566	113
567	113
568	113
569	113
570	113
571	113
572	113
573	113
574	113
575	113
576	113
577	113
578	113
579	113
580	113
581	113
582	113
583	113
584	113
585	113
586	113
587	113
588	113
589	113
590	113
591	113
592	113
593	113
594	113
595	113
596	113
597	113
598	113
599	113
600	113
601	113
602	113
603	113
604	113
605	113
606	113
607	113
608	113
609	113
610	113
611	113
612	113
613	113
614	113
615	113
616	113
617	113
618	113
619	113
620	113
621	113
622	113
623	113
624	113
625	113
626	113
627	113
628	113
629	113
630	113
631	113
632	113
633	113
634	113
635	113
636	113
637	113
638	113
639	113
640	113
641	113
642	113
643	113
644	113
645	113
646	113
647	113
648	113
649	113
650	113
651	113
652	113
653	113
654	113
655	113
656	113
657	113
658	113
659	113
660	113
661	113
662	113
663	113
664	113
665	113
666	113
667	113
668	113
669	113
670	113
671	113
672	113
673	113
674	113
675	113
676	113
677	113
678	113
679	113
680	113
681	113
682	113
683	113
684	113
685	113
686	113
687	113
688	113
689	113
690	113
691	113
692	113
693	113
694	113
695	113
696	113
697	113
698	113
699	113
700	113
701	113
702	113
703	113
704	113
705	113
706	113
707	113
708	113
709	113
710	113
711	113
712	113
713	113
714	113
715	113
716	113
717	113
718	113
719	113
720	113
721	113
722	113
723	113
724	113
725	113
726	113
727	113
728	113
729	113
730	113
731	113
732	113
733	113
734	113
735	113
736	113
737	113
738	113
739	113
740	113
741	129
742	129
743	129
744	129
745	129
746	129
747	129
748	129
749	129
750	129
751	129
752	129
753	129
754	129
755	129
756	129
757	129
758	129
759	129
760	129
761	129
762	129
763	129
764	129
765	129
766	129
767	129
768	129
769	129
770	129
771	129
772	129
773	129
774	129
775	129
776	129
777	129
778	129
779	129
780	129
781	129
782	129
783	129
784	129
785	129
786	129
787	129
788	129
789	129
790	129
791	129
792	129
793	129
794	129
795	129
796	129
797	129
798	129
799	129
800	129
801	129
802	129
803	129
804	129
805	129
806	129
807	129
808	129
809	129
810	129
811	129
812	129
813	129
814	129
815	129
816	129
817	129
818	129
819	129
820	129
821	129
822	129
823	129
824	129
825	129
826	129
827	129
828	129
829	129
830	129
831	129
832	129
833	129
834	129
835	129
836	129
837	129
838	129
839	129
840	129
841	129
842	129
843	129
844	129
845	129
846	129
847	129
848	129
849	129
850	129
851	129
852	129
853	129
854	129
855	129
856	129
857	129
858	129
859	129
860	129
861	129
862	129
863	129
864	129
865	129
866	129
867	129
868	129
869	129
870	129
871	129
872	129
873	129
874	129
875	129
876	129
877	129
878	129
879	129
880	129
881	129
882	129
883	129
884	129
885	129
886	129
887	129
888	129
889	129
890	129
891	129
892	129
893	129
894	129
895	129
896	129
897	129
898	129
899	129
900	129
901	129
902	129
903	129
904	129
905	129
906	129
907	129
908	129
909	129
910	129
911	129
912	129
913	129
914	129
915	129
916	129
917	129
918	129
919	129
920	129
921	129
922	129
923	129
924	129
925	129
DEPOT_SECTION
1
EOF
